s td 65 32 102
b 1 4 80 89
b 2 5 10 79
b 3 7 21 26
b 4 11 36 62
b 5 12 21 40
b 6 13 64 97
b 7 15 64 65
b 8 33 44 64
b 9 18 37 41
b 10 39 41 70
b 11 42 58 84
b 12 41 46 87
b 13 21 50 71
b 14 54 55 60
b 15 53 64 65
b 16 53 64 99
b 17 8 31 81
b 18 61 63 85
b 19 41 70 87
b 20 17 41 88
b 21 22 41 101
b 22 8 31 99
b 23 10 59 79
b 24 14 63 66 69
b 25 17 41 93
b 26 18 41 69
b 27 21 26 83
b 28 35 80 89 98
b 29 44 61 64
b 30 59 63 66 69
b 31 41 70 77
b 32 31 41 77 93
b 33 31 41 93
b 34 31 64 99
b 35 22 41 68 98
b 36 1 2 3 9 24 29 31 32 38 41 43 49 51 52 57 58 60 63 72 79 80 86 90 92 94 95
b 37 1 3 9 20 23 24 29 31 32 38 41 43 45 49 51 52 57 58 60 62 63 64 72 74 75 79 80 86 90 92 94 95
b 38 3 9 20 23 24 29 30 31 38 41 43 45 49 51 52 57 58 60 62 63 64 72 74 75 78 79 80 86 90 92 94 95
b 39 3 9 20 23 24 29 30 31 38 41 43 45 49 51 52 57 58 60 62 63 64 72 73 74 75 78 79 80 90 92 94 95
b 40 3 9 23 24 29 30 31 34 38 41 43 45 49 51 52 57 58 60 62 63 64 72 73 74 75 78 79 80 90 92 94 95
b 41 3 9 23 24 30 31 34 38 41 43 45 49 51 52 57 58 62 63 64 72 73 74 75 78 79 80 90 92 94 95 96
b 42 3 9 23 24 30 31 34 38 43 45 49 51 52 56 57 58 62 63 64 72 73 74 75 78 79 80 90 92 94 95 96
b 43 3 9 23 28 30 31 34 38 43 45 49 51 52 56 57 58 62 64 73 74 78 79 80 90 92 94 95 96
b 44 3 9 16 23 28 30 31 34 43 49 51 52 56 57 58 62 64 73 74 78 79 80 90 92 94 95 96
b 45 3 6 9 16 51 64 74 80 94 96
b 46 3 9 16 28 34 43 47 49 56 57 64 73 90 92 94 95 96
b 47 3 9 20 30 51 63 72 73 74 80 92 102
b 48 23 24 30 31 43 45 49 51 62 67 75 78 86 92 94 95
b 49 1 20 23 29 31 32 38 41 43 45 58 60 62 63 64 72 74 75 79 80 82 86 90 92 94
b 50 1 20 21 23 31 32 38 41 43 45 58 60 62 63 64 72 74 75 79 80 82 86 90 94
b 51 1 20 21 23 31 32 41 43 45 58 60 62 63 64 74 79 80 82 86 90 94 100
b 52 1 19 20 23 31 32 43 45 60 63 74 79 82 86 90 94 100
b 53 21 41 58 80 82 84 94
b 54 21 41 80 82 84 98
b 55 21 41 68 82 98
b 56 1 2 3 9 24 29 31 32 38 41 43 48 49 51 52 57 58 60 63 72 79 80 90 92 95
b 57 1 2 3 24 25 32 41 43 48 49 51 57 58 60 63 72 79 80 92 95
b 58 1 2 24 25 27 32 41 43 48 49 57 58 60 63 72 92 95
b 59 2 24 27 41 63 72 76 95
b 60 29 32 38 41 48 63 72 90 91
b 61 24 41 63 69 79
b 62 59 63 69 79
b 63 61 63 64 92
b 64 21 68 82 83
b 65 80 84 89 98
1 65
2 23
3 27
4 37
5 50
6 37
7 15
8 29
9 26
10 31
11 53
12 19
13 50
14 36
15 16
16 34
17 22
18 63
19 31
20 25
21 35
22 34
23 62
24 30
25 33
26 61
27 64
28 65
29 63
30 62
31 32
32 33
33 36
34 37
35 55
36 37
36 56
36 61
37 63
37 38
37 49
38 39
38 48
39 40
39 47
40 41
41 42
42 43
43 44
44 45
44 46
49 50
50 51
50 53
51 52
53 54
54 65
54 55
55 64
56 57
56 60
57 58
58 59
61 62
